# Solution for model LP_for_VRPC59D
# Objective value = 4.0445317407475377e+03
y[0] 54
y[1] 55
y[2] 56
y[3] 55
y[4] 54
y[5] 53
y[6] 52
y[7] 51
y[8] 50
y[9] 49
y[10] 48
y[11] 47
y[12] 46
y[13] 45
y[14] 44
y[15] 43
y[16] 42
y[17] 41
y[18] 40
y[19] 39
y[20] 38
y[21] 37
y[22] 36
y[23] 35
y[24] 34
y[25] 33
y[26] 32
y[27] 31
y[28] 30
y[29] 29
y[30] 28
y[31] 27
y[32] 26
y[33] 25
y[34] 24
y[35] 23
y[36] 22
y[37] 21
y[38] 20
y[39] 19
y[40] 18
y[41] 17
y[42] 16
y[43] 15
y[44] 14
y[45] 13
y[46] 12
y[47] 11
y[48] 10
y[49] 9
y[50] 8
y[51] 7
y[52] 6
y[53] 5
y[54] 4
y[55] 3
y[56] 2
y[57] 1
y[58] 0
y[59] 1
y[60] 0
y[61] 1
y[62] 0
y[63] 1
y[64] 0
y[65] 0
y[66] 1
y[67] 0
y[68] 1
y[69] 0
y[70] 1
y[71] 0
y[72] 1
y[73] 0
y[74] 1
y[75] 0
y[76] 1
y[77] 0
y[78] 1
y[79] 0
y[80] 1
y[81] 0
y[82] 1
y[83] 0
y[84] 1
y[85] 0
y[86] 1
y[87] 0
y[88] 1
y[89] 0
y[90] 1
y[91] 0
y[92] 1
y[93] 0
y[94] 1
y[95] 0
y[96] 1
y[97] 0
y[98] 1
y[99] 0
y[100] 1
y[101] 0
y[102] 1
y[103] 0
y[104] 1
y[105] 0
y[106] 1
y[107] 0
y[108] 1
y[109] 0
y[110] 1
y[111] 0
y[112] 1
y[113] 0
y[114] 1
y[115] 0
y[116] 1
y[117] 0
y[118] 1
y[119] 0
y[120] 1
y[121] 0
y[122] 1
y[123] 0
y[124] 1
y[125] 0
y[126] 1
y[127] 0
y[128] 1
y[129] 0
y[130] 1
y[131] 0
y[132] 1
y[133] 0
y[134] 1
y[135] 0
y[136] 1
y[137] 0
y[138] 1
y[139] 0
y[140] 1
y[141] 0
y[142] 1
y[143] 0
y[144] 1
y[145] 0
y[146] 1
y[147] 0
y[148] 1
y[149] 0
y[150] 1
y[151] 0
y[152] 1
y[153] 0
y[154] 1
y[155] 0
y[156] 1
y[157] 0
y[158] 1
y[159] 0
y[160] 1
y[161] 0
y[162] 1
y[163] 0
y[164] 1
y[165] 0
y[166] 1
y[167] 0
y[168] 1
y[169] 0
y[170] 1
y[171] 0
y[172] 1
y[173] 0
y[174] 1
y[175] 0
y[176] 1
y[177] 0
y[178] 0
